NAME: concorde30
TYPE: TSP
COMMENT: Generated by CCutil_writetsplib
COMMENT: Write called for by Concorde GUI
DIMENSION: 30
EDGE_WEIGHT_TYPE: EUC_2D
NODE_COORD_SECTION
1 87.951292 2.658162
2 33.466597 66.682943
3 91.778314 53.807184
4 20.526749 47.633290
5 9.006012 81.185339
6 20.032350 2.761925
7 77.181310 31.922361
8 41.059603 32.578509
9 18.692587 97.015290
10 51.658681 33.808405
11 44.563128 47.541734
12 37.806330 50.599689
13 9.961241 20.337535
14 28.186895 70.415357
15 62.129582 6.183050
16 50.376904 42.796106
17 71.285134 43.671987
18 34.156316 49.113437
19 85.201575 71.837519
20 27.466659 1.394696
21 97.985778 44.746239
22 40.730003 98.400830
23 73.799860 61.076693
24 85.076449 17.029328
25 16.052736 11.899167
26 20.160527 67.238380
27 22.730186 99.725333
28 77.196570 88.503677
29 18.494217 31.971191
30 72.743919 16.071047
